NAME : XML100_3356_16
DIMENSION : 101
NB_CLUSTERS : 24
CLUSTERING_ALG : DBSCAN
CLUSTERING_PARAMS : eps(37), minSamples(3)
CLUSTERS
1 0
2 1 9 15 18 22 23 37 40 57 73 74 76 79 83 98
3 3 10 17 20 42 66 75 88 100
4 7 14 28 90 92
5 12 25 54 71 96
6 21 33 35 62 65 95
7 24 27 44 64 67
8 46 55 87 94
9 5 6 29 38 45 89 97
10 52 99
11 47 48 56 68
12 34 49 63 72
13 69 80 91 93
14 8 31 32
15 26 77
16 78 82
17 13 39 41 51 58
18 11 16
19 53 61 84
20 2 30 81
21 4 59 85
22 50 70 86
23 19 36
24 43 60
EOF